198
0 34 106 136 31 185 176 183 25 124 
141 187 174 23 169 19 196 188 158 181 
64 172 179 191 92 195 38 142 121 132 
116 114 190 57 104 16 144 186 111 81 
59 120 37 77 119 134 145 189 72 95 
10 30 8 147 113 26 9 1 184 32 
157 86 193 127 175 21 131 49 55 93 
80 99 83 15 94 5 100 46 162 50 
70 164 103 74 180 107 60 153 22 39 
20 101 96 29 197 6 109 11 117 54 
7 36 160 85 24 62 135 41 84 166 
67 159 44 61 53 56 98 43 35 78 
17 171 73 75 68 128 90 33 79 151 
168 163 47 194 102 143 173 123 97 149 
88 66 178 4 18 126 82 108 115 2 
170 125 177 27 118 155 129 154 48 148 
130 146 150 76 89 167 105 122 51 91 
52 69 40 165 42 139 3 87 63 156 
161 140 138 58 71 12 13 110 14 182 
45 152 112 192 133 28 137 65 
